\ENCODING=ISO-8859-1
\Problem name: IloCplex

Maximize
 obj: 864 vnp1 - 68 (π,ρ)0↑e1 - 110 (π,ρ)1↑e2
      - 95 (π,ρ)2↑e2 - 165 (π,ρ)3↑e2
      - 161 (π,ρ)4↑e2 - 121 (π,ρ)5↑e2
      - 166 (π,ρ)6↑e2 - 269 (π,ρ)7↑e2
      - 266 (π,ρ)8↑e2 - 281 (π,ρ)9↑e2
      - 170 (π,ρ)10↑e2 - 240 (π,ρ)11↑e2
      - 190 (π,ρ)12↑e2 - 246 (π,ρ)13↑e2
      - 223 (π,ρ)14↑e2 - 229 (π,ρ)15↑e2
      - 18 (π,ρ)16↑e3 - 4 (π,ρ)17↑e4 + 1996 vnp2
      - 43 (π,ρ)18↑e5 - 144 (π,ρ)19↑e6
      - 144 (π,ρ)20↑e6 - 92 (π,ρ)21↑e6
      - 136 (π,ρ)22↑e6 - 139 (π,ρ)23↑e6
      - 176 (π,ρ)24↑e6 - 172 (π,ρ)25↑e6
      - 184 (π,ρ)26↑e6 - 215 (π,ρ)27↑e6
      - 183 (π,ρ)28↑e6 - 160 (π,ρ)29↑e6
      - 195 (π,ρ)30↑e6 - 168 (π,ρ)31↑e6
      - 168 (π,ρ)32↑e6 - 180 (π,ρ)33↑e6
      - 50 (π,ρ)34↑e7 - 49 (π,ρ)35↑e8
      - 204 (π,ρ)36↑e9 - 256 (π,ρ)37↑e9
      - 164 (π,ρ)38↑e9 - 175 (π,ρ)39↑e9
      - 181 (π,ρ)40↑e9 - 281 (π,ρ)41↑e9
      - 160 (π,ρ)42↑e9 - 125 (π,ρ)43↑e9
      - 95 (π,ρ)44↑e9 - 269 (π,ρ)45↑e9
      - 339 (π,ρ)46↑e9 - 219 (π,ρ)47↑e9
      - 240 (π,ρ)48↑e9 - 345 (π,ρ)49↑e9
      - 385 (π,ρ)50↑e9 - 68 (π,ρ)51↑e10
Subject To
 _EmbdConstr_vnp1e1#0:   vnp1 - (π,ρ)0↑e1  = 0
 _EmbdConstr_vnp1e2#1:   vnp1 - (π,ρ)1↑e2 - (π,ρ)2↑e2
                         - (π,ρ)3↑e2 - (π,ρ)4↑e2
                         - (π,ρ)5↑e2 - (π,ρ)6↑e2
                         - (π,ρ)7↑e2 - (π,ρ)8↑e2
                         - (π,ρ)9↑e2 - (π,ρ)10↑e2
                         - (π,ρ)11↑e2 - (π,ρ)12↑e2
                         - (π,ρ)13↑e2 - (π,ρ)14↑e2
                         - (π,ρ)15↑e2  = 0
 _EmbdConstr_vnp1e3#2:   vnp1 - (π,ρ)16↑e3  = 0
 _EmbdConstr_vnp1e4#3:   vnp1 - (π,ρ)17↑e4  = 0
 _EmbdConstr_vnp2e5#4:   vnp2 - (π,ρ)18↑e5  = 0
 _EmbdConstr_vnp2e6#5:   vnp2 - (π,ρ)19↑e6 - (π,ρ)20↑e6
                         - (π,ρ)21↑e6 - (π,ρ)22↑e6
                         - (π,ρ)23↑e6 - (π,ρ)24↑e6
                         - (π,ρ)25↑e6 - (π,ρ)26↑e6
                         - (π,ρ)27↑e6 - (π,ρ)28↑e6
                         - (π,ρ)29↑e6 - (π,ρ)30↑e6
                         - (π,ρ)31↑e6 - (π,ρ)32↑e6
                         - (π,ρ)33↑e6  = 0
 _EmbdConstr_vnp2e7#6:   vnp2 - (π,ρ)34↑e7  = 0
 _EmbdConstr_vnp2e8#7:   vnp2 - (π,ρ)35↑e8  = 0
 _EmbdConstr_vnp2e9#8:   vnp2 - (π,ρ)36↑e9 - (π,ρ)37↑e9
                         - (π,ρ)38↑e9 - (π,ρ)39↑e9
                         - (π,ρ)40↑e9 - (π,ρ)41↑e9
                         - (π,ρ)42↑e9 - (π,ρ)43↑e9
                         - (π,ρ)44↑e9 - (π,ρ)45↑e9
                         - (π,ρ)46↑e9 - (π,ρ)47↑e9
                         - (π,ρ)48↑e9 - (π,ρ)49↑e9
                         - (π,ρ)50↑e9  = 0
 _EmbdConstr_vnp2e10#9:  vnp2 - (π,ρ)51↑e10  = 0
 BwCapConstr_slink1#10:  5 (π,ρ)10↑e2 + 5 (π,ρ)11↑e2
                         + 5 (π,ρ)12↑e2 <= 1
 BwCapConstr_slink2#11:  2 (π,ρ)8↑e2 + 5 (π,ρ)10↑e2
                         + 5 (π,ρ)11↑e2 + 5 (π,ρ)12↑e2
                         <= 1
 BwCapConstr_slink3#12:  5 (π,ρ)15↑e2 <= 6
 BwCapConstr_slink5#13:  5 (π,ρ)1↑e2 + 5 (π,ρ)2↑e2
                         + 5 (π,ρ)3↑e2 + 5 (π,ρ)4↑e2
                         + 2 (π,ρ)16↑e3 <= 7
 BwCapConstr_slink6#14:  (π,ρ)6↑e2 + 5 (π,ρ)13↑e2
                         + 5 (π,ρ)14↑e2 + 5 (π,ρ)15↑e2
                         <= 11
 BwCapConstr_slink7#15:  5 (π,ρ)1↑e2 + 5 (π,ρ)4↑e2
                         + 5 (π,ρ)5↑e2 + 5 (π,ρ)6↑e2
                         + 2 (π,ρ)7↑e2 + 2 (π,ρ)9↑e2
                         + 5 (π,ρ)10↑e2 + 5 (π,ρ)13↑e2
                         + 5 (π,ρ)14↑e2 + 5 (π,ρ)15↑e2
                         <= 5
 BwCapConstr_slink8#16:  5 (π,ρ)2↑e2 + 5 (π,ρ)6↑e2
                         + 5 (π,ρ)7↑e2 + 5 (π,ρ)8↑e2
                         + 5 (π,ρ)9↑e2 + 5 (π,ρ)11↑e2
                         + 5 (π,ρ)14↑e2 <= 6
 BwCapConstr_slink9#17:  2 (π,ρ)6↑e2 + (π,ρ)14↑e2
                         + 2 (π,ρ)15↑e2 <= 13
 BwCapConstr_slink10#18: (π,ρ)15↑e2 + (π,ρ)26↑e6
                         + (π,ρ)30↑e6 + 4 (π,ρ)31↑e6
                         + 4 (π,ρ)32↑e6 + 4 (π,ρ)33↑e6
                         <= 9
 BwCapConstr_slink11#19: 3 (π,ρ)30↑e6 + 4 (π,ρ)31↑e6
                         + 4 (π,ρ)32↑e6 + 4 (π,ρ)33↑e6
                         <= 11
 BwCapConstr_slink12#20: 5 (π,ρ)3↑e2 <= 5
 BwCapConstr_slink13#21: (π,ρ)1↑e2 + 5 (π,ρ)4↑e2
                         + 5 (π,ρ)5↑e2 + 5 (π,ρ)6↑e2
                         + (π,ρ)7↑e2 + (π,ρ)10↑e2
                         + 5 (π,ρ)11↑e2 <= 7
 BwCapConstr_slink14#22: 5 (π,ρ)1↑e2 + 5 (π,ρ)2↑e2
                         + 5 (π,ρ)3↑e2 + 4 (π,ρ)4↑e2
                         + (π,ρ)9↑e2 + 5 (π,ρ)10↑e2
                         + 5 (π,ρ)11↑e2 + 5 (π,ρ)12↑e2
                         + 5 (π,ρ)13↑e2 + 5 (π,ρ)14↑e2
                         + 5 (π,ρ)15↑e2 <= 10
 BwCapConstr_slink15#23: 4 (π,ρ)0↑e1 <= 6
 BwCapConstr_slink16#24: 5 (π,ρ)12↑e2 + 2 (π,ρ)17↑e4 <= 3
 BwCapConstr_slink20#25: (π,ρ)3↑e2 + 5 (π,ρ)7↑e2
                         + 5 (π,ρ)8↑e2 + 5 (π,ρ)9↑e2 <= 4
 BwCapConstr_slink22#26: 2 (π,ρ)5↑e2 + 5 (π,ρ)7↑e2
                         + 5 (π,ρ)8↑e2 + 5 (π,ρ)9↑e2
                         + 2 (π,ρ)13↑e2 <= 4
 BwCapConstr_slink24#27: 4 (π,ρ)22↑e6 + 4 (π,ρ)23↑e6
                         + 4 (π,ρ)24↑e6 <= 15
 BwCapConstr_slink25#28: (π,ρ)18↑e5 + (π,ρ)19↑e6
                         + 4 (π,ρ)25↑e6 + 4 (π,ρ)26↑e6
                         + 4 (π,ρ)27↑e6 + 4 (π,ρ)28↑e6
                         + 4 (π,ρ)29↑e6 + 4 (π,ρ)30↑e6
                         + (π,ρ)31↑e6 + 2 (π,ρ)38↑e9
                         + 2 (π,ρ)47↑e9 + 4 (π,ρ)51↑e10
                         <= 10
 BwCapConstr_slink26#29: 3 (π,ρ)18↑e5 + 4 (π,ρ)19↑e6
                         + 4 (π,ρ)20↑e6 + 4 (π,ρ)21↑e6
                         + (π,ρ)25↑e6 + 2 (π,ρ)27↑e6
                         + (π,ρ)28↑e6 + 2 (π,ρ)51↑e10
                         <= 1
 BwCapConstr_slink27#30: 4 (π,ρ)24↑e6 + 4 (π,ρ)28↑e6
                         + 4 (π,ρ)29↑e6 + 4 (π,ρ)30↑e6
                         + 5 (π,ρ)34↑e7 + 2 (π,ρ)36↑e9
                         + 3 (π,ρ)37↑e9 + 5 (π,ρ)39↑e9
                         + 5 (π,ρ)40↑e9 + 5 (π,ρ)41↑e9
                         + 2 (π,ρ)45↑e9 + 5 (π,ρ)49↑e9
                         <= 13
 BwCapConstr_slink28#31: 5 (π,ρ)48↑e9 + 5 (π,ρ)49↑e9
                         + 5 (π,ρ)50↑e9 <= 15
 BwCapConstr_slink29#32: 4 (π,ρ)22↑e6 + 4 (π,ρ)23↑e6
                         + 4 (π,ρ)24↑e6 + 4 (π,ρ)33↑e6
                         + 5 (π,ρ)48↑e9 + 5 (π,ρ)49↑e9
                         + 5 (π,ρ)50↑e9 <= 6
 BwCapConstr_slink37#33: 4 (π,ρ)20↑e6 + 4 (π,ρ)25↑e6
                         + 4 (π,ρ)26↑e6 + 4 (π,ρ)27↑e6
                         + 4 (π,ρ)32↑e6 + 5 (π,ρ)36↑e9
                         + 5 (π,ρ)37↑e9 + 5 (π,ρ)38↑e9
                         + 2 (π,ρ)41↑e9 + 5 (π,ρ)45↑e9
                         + 5 (π,ρ)46↑e9 + 5 (π,ρ)47↑e9
                         + 5 (π,ρ)50↑e9 <= 14
 BwCapConstr_slink38#34: 4 (π,ρ)19↑e6 + 4 (π,ρ)31↑e6
                         + 2 (π,ρ)40↑e9 + 5 (π,ρ)42↑e9
                         + 5 (π,ρ)43↑e9 + 5 (π,ρ)44↑e9
                         + 2 (π,ρ)46↑e9 <= 19
 BwCapConstr_slink39#35: 5 (π,ρ)41↑e9 + 5 (π,ρ)45↑e9
                         + 5 (π,ρ)46↑e9 + 5 (π,ρ)47↑e9
                         + 5 (π,ρ)50↑e9 <= 15
 BwCapConstr_slink40#36: 4 (π,ρ)22↑e6 + 4 (π,ρ)23↑e6
                         + 4 (π,ρ)24↑e6 + 4 (π,ρ)25↑e6
                         + 4 (π,ρ)26↑e6 + 4 (π,ρ)27↑e6
                         + 2 (π,ρ)29↑e6 + 3 (π,ρ)33↑e6
                         + 5 (π,ρ)36↑e9 + 5 (π,ρ)37↑e9
                         + 5 (π,ρ)38↑e9 + 5 (π,ρ)39↑e9
                         + 5 (π,ρ)42↑e9 + 5 (π,ρ)48↑e9
                         + 5 (π,ρ)49↑e9 + 5 (π,ρ)50↑e9
                         <= 8
 BwCapConstr_slink41#37: 3 (π,ρ)27↑e6 + 3 (π,ρ)28↑e6
                         + 4 (π,ρ)37↑e9 + 5 (π,ρ)46↑e9
                         + 5 (π,ρ)49↑e9 <= 14
 BwCapConstr_slink42#38: 4 (π,ρ)19↑e6 + 4 (π,ρ)20↑e6
                         + 4 (π,ρ)21↑e6 + (π,ρ)23↑e6
                         + 4 (π,ρ)26↑e6 + 4 (π,ρ)28↑e6
                         + 4 (π,ρ)29↑e6 + 4 (π,ρ)30↑e6
                         + 4 (π,ρ)31↑e6 + 4 (π,ρ)32↑e6
                         + 4 (π,ρ)33↑e6 + 3 (π,ρ)35↑e8
                         + 4 (π,ρ)36↑e9 + 5 (π,ρ)39↑e9
                         + 5 (π,ρ)40↑e9 + 5 (π,ρ)41↑e9
                         + 3 (π,ρ)43↑e9 + 5 (π,ρ)45↑e9
                         + 5 (π,ρ)46↑e9 + 5 (π,ρ)48↑e9
                         <= 13
 BwCapConstr_slink43#39: 4 (π,ρ)30↑e6 + (π,ρ)35↑e8
                         + 4 (π,ρ)37↑e9 + 5 (π,ρ)40↑e9
                         + 5 (π,ρ)41↑e9 + 5 (π,ρ)42↑e9
                         + 5 (π,ρ)43↑e9 + 5 (π,ρ)44↑e9
                         + 5 (π,ρ)45↑e9 + 5 (π,ρ)46↑e9
                         + 5 (π,ρ)47↑e9 + 5 (π,ρ)49↑e9
                         + 5 (π,ρ)50↑e9 <= 13
Bounds
 0 <= vnp1 <= 1
 0 <= (π,ρ)0↑e1 <= 1
 0 <= (π,ρ)1↑e2 <= 1
 0 <= (π,ρ)2↑e2 <= 1
 0 <= (π,ρ)3↑e2 <= 1
 0 <= (π,ρ)4↑e2 <= 1
 0 <= (π,ρ)5↑e2 <= 1
 0 <= (π,ρ)6↑e2 <= 1
 0 <= (π,ρ)7↑e2 <= 1
 0 <= (π,ρ)8↑e2 <= 1
 0 <= (π,ρ)9↑e2 <= 1
 0 <= (π,ρ)10↑e2 <= 1
 0 <= (π,ρ)11↑e2 <= 1
 0 <= (π,ρ)12↑e2 <= 1
 0 <= (π,ρ)13↑e2 <= 1
 0 <= (π,ρ)14↑e2 <= 1
 0 <= (π,ρ)15↑e2 <= 1
 0 <= (π,ρ)16↑e3 <= 1
 0 <= (π,ρ)17↑e4 <= 1
 0 <= vnp2 <= 1
 0 <= (π,ρ)18↑e5 <= 1
 0 <= (π,ρ)19↑e6 <= 1
 0 <= (π,ρ)20↑e6 <= 1
 0 <= (π,ρ)21↑e6 <= 1
 0 <= (π,ρ)22↑e6 <= 1
 0 <= (π,ρ)23↑e6 <= 1
 0 <= (π,ρ)24↑e6 <= 1
 0 <= (π,ρ)25↑e6 <= 1
 0 <= (π,ρ)26↑e6 <= 1
 0 <= (π,ρ)27↑e6 <= 1
 0 <= (π,ρ)28↑e6 <= 1
 0 <= (π,ρ)29↑e6 <= 1
 0 <= (π,ρ)30↑e6 <= 1
 0 <= (π,ρ)31↑e6 <= 1
 0 <= (π,ρ)32↑e6 <= 1
 0 <= (π,ρ)33↑e6 <= 1
 0 <= (π,ρ)34↑e7 <= 1
 0 <= (π,ρ)35↑e8 <= 1
 0 <= (π,ρ)36↑e9 <= 1
 0 <= (π,ρ)37↑e9 <= 1
 0 <= (π,ρ)38↑e9 <= 1
 0 <= (π,ρ)39↑e9 <= 1
 0 <= (π,ρ)40↑e9 <= 1
 0 <= (π,ρ)41↑e9 <= 1
 0 <= (π,ρ)42↑e9 <= 1
 0 <= (π,ρ)43↑e9 <= 1
 0 <= (π,ρ)44↑e9 <= 1
 0 <= (π,ρ)45↑e9 <= 1
 0 <= (π,ρ)46↑e9 <= 1
 0 <= (π,ρ)47↑e9 <= 1
 0 <= (π,ρ)48↑e9 <= 1
 0 <= (π,ρ)49↑e9 <= 1
 0 <= (π,ρ)50↑e9 <= 1
 0 <= (π,ρ)51↑e10 <= 1
Binaries
 vnp1  (π,ρ)0↑e1  (π,ρ)1↑e2  (π,ρ)2↑e2 
 (π,ρ)3↑e2  (π,ρ)4↑e2  (π,ρ)5↑e2 
 (π,ρ)6↑e2  (π,ρ)7↑e2  (π,ρ)8↑e2 
 (π,ρ)9↑e2  (π,ρ)10↑e2  (π,ρ)11↑e2 
 (π,ρ)12↑e2  (π,ρ)13↑e2  (π,ρ)14↑e2 
 (π,ρ)15↑e2  (π,ρ)16↑e3  (π,ρ)17↑e4  vnp2 
 (π,ρ)18↑e5  (π,ρ)19↑e6  (π,ρ)20↑e6 
 (π,ρ)21↑e6  (π,ρ)22↑e6  (π,ρ)23↑e6 
 (π,ρ)24↑e6  (π,ρ)25↑e6  (π,ρ)26↑e6 
 (π,ρ)27↑e6  (π,ρ)28↑e6  (π,ρ)29↑e6 
 (π,ρ)30↑e6  (π,ρ)31↑e6  (π,ρ)32↑e6 
 (π,ρ)33↑e6  (π,ρ)34↑e7  (π,ρ)35↑e8 
 (π,ρ)36↑e9  (π,ρ)37↑e9  (π,ρ)38↑e9 
 (π,ρ)39↑e9  (π,ρ)40↑e9  (π,ρ)41↑e9 
 (π,ρ)42↑e9  (π,ρ)43↑e9  (π,ρ)44↑e9 
 (π,ρ)45↑e9  (π,ρ)46↑e9  (π,ρ)47↑e9 
 (π,ρ)48↑e9  (π,ρ)49↑e9  (π,ρ)50↑e9 
 (π,ρ)51↑e10 
End
